NAME : instances/clustered-mixed-tsp/instance-32.tsp
COMMENT : No Comment
TYPE : TSP
DIMENSION: 50
EDGE_WEIGHT_TYPE : EUC_2D
NODE_COORD_SECTION
1 1433 715 
2 253 231 
3 1643 671 
4 351 302 
5 269 282 
6 1079 335 
7 1476 726 
8 1483 1519 
9 180 1423 
10 1799 669 
11 347 578 
12 1432 766 
13 1764 668 
14 260 616 
15 115 1533 
16 1148 266 
17 295 652 
18 265 566 
19 161 1425 
20 1635 670 
21 253 139 
22 207 1542 
23 1478 1497 
24 1355 788 
25 357 635 
26 563 759 
27 238 311 
28 1096 207 
29 333 278 
30 1090 252 
31 1375 818 
32 300 192 
33 1190 1531 
34 169 1432 
35 1312 1399 
36 1779 853 
37 1230 1468 
38 318 641 
39 333 599 
40 1078 226 
41 977 192 
42 1456 872 
43 1144 260 
44 1303 1545 
45 319 280 
46 1216 1514 
47 337 716 
48 1498 1515 
49 1762 815 
50 329 569 
EOF
